NAME 
ROWS
 N  OBJ
 L  R0      
 L  R1      
 E  R2      
 E  R3      
 E  R4      
 E  R5      
 E  R6      
 E  R7      
 E  R8      
 E  R9      
 E  R10     
 E  R11     
 E  R12     
 E  R13     
 E  R14     
 E  R15     
 E  R16     
 E  R17     
 E  R18     
 E  R19     
 E  R20     
 E  R21     
COLUMNS
    MARKER    'MARKER'                 'INTORG'
    I0(10)    OBJ       -11
    I0(10)    R0        8
    I0(10)    R1        13
    I0(10)    R2        3
    I0(10)    R3        10
    I0(10)    R4        15
    I0(10)    R5        1
    I0(10)    R7        4
    I0(10)    R8        13
    I0(10)    R9        10
    I0(10)    R21       1
    I1(8)     OBJ       -146
    I1(8)     R0        151
    I1(8)     R1        -73
    I1(8)     R2        9
    I1(8)     R4        11
    I1(8)     R5        -1
    I1(8)     R6        3
    I1(8)     R7        16
    I1(8)     R21       1
    I2(4)     OBJ       53
    I2(4)     R0        160
    I2(4)     R1        19
    I2(4)     R8        17
    I2(4)     R21       1
    I3(6)     OBJ       -132
    I3(6)     R0        113
    I3(6)     R1        -124
    I3(6)     R4        8
    I3(6)     R7        3
    I3(6)     R8        3
    I3(6)     R21       1
    I4(4)     OBJ       170
    I4(4)     R0        -72
    I4(4)     R1        104
    I4(4)     R7        18
    I4(4)     R21       1
    I5(6)     OBJ       -182
    I5(6)     R0        -32
    I5(6)     R1        -38
    I5(6)     R2        2
    I5(6)     R6        19
    I5(6)     R8        15
    I5(6)     R21       1
    I6(5)     OBJ       73
    I6(5)     R0        -121
    I6(5)     R1        -183
    I6(5)     R5        12
    I6(5)     R8        16
    I6(5)     R21       1
    I7(5)     OBJ       193
    I7(5)     R0        -65
    I7(5)     R1        160
    I7(5)     R2        3
    I7(5)     R7        13
    I7(5)     R21       1
    MARKER    'MARKER'                 'INTEND'
    C8(12)    OBJ       -3
    C8(12)    R0        6
    C8(12)    R1        5
    C8(12)    R2        7
    C8(12)    R8        -1
    C8(12)    R9        7
    C8(12)    R11       10
    C8(12)    R12       7
    C8(12)    R13       5
    C8(12)    R15       5
    C8(12)    R18       16
    C8(12)    R19       3
    C8(12)    R20       1
    C9(11)    OBJ       -9
    C9(11)    R0        -7
    C9(11)    R1        -4
    C9(11)    R4        1
    C9(11)    R5        16
    C9(11)    R7        3
    C9(11)    R8        6
    C9(11)    R9        1
    C9(11)    R14       3
    C9(11)    R15       10
    C9(11)    R16       -1
    C9(11)    R19       8
    C10(12)   OBJ       -4
    C10(12)   R0        -4
    C10(12)   R1        -7
    C10(12)   R2        14
    C10(12)   R4        3
    C10(12)   R5        6
    C10(12)   R6        2
    C10(12)   R7        7
    C10(12)   R8        1
    C10(12)   R11       3
    C10(12)   R14       6
    C10(12)   R15       11
    C10(12)   R20       17
    C11(15)   OBJ       -8
    C11(15)   R0        5
    C11(15)   R1        1
    C11(15)   R2        10
    C11(15)   R4        8
    C11(15)   R5        19
    C11(15)   R6        9
    C11(15)   R8        11
    C11(15)   R9        16
    C11(15)   R10       15
    C11(15)   R11       8
    C11(15)   R12       3
    C11(15)   R14       4
    C11(15)   R15       3
    C11(15)   R17       15
    C11(15)   R18       1
    C12(10)   OBJ       4
    C12(10)   R0        -4
    C12(10)   R1        -5
    C12(10)   R5        1
    C12(10)   R9        9
    C12(10)   R11       18
    C12(10)   R13       15
    C12(10)   R15       -1
    C12(10)   R16       4
    C12(10)   R19       16
    C12(10)   R20       4
    C13(12)   OBJ       -4
    C13(12)   R0        -7
    C13(12)   R1        -2
    C13(12)   R2        14
    C13(12)   R3        16
    C13(12)   R4        12
    C13(12)   R5        10
    C13(12)   R6        5
    C13(12)   R9        8
    C13(12)   R10       7
    C13(12)   R12       16
    C13(12)   R19       7
    C13(12)   R20       5
    C14(11)   OBJ       -7
    C14(11)   R0        -5
    C14(11)   R1        9
    C14(11)   R2        8
    C14(11)   R3        8
    C14(11)   R6        8
    C14(11)   R12       17
    C14(11)   R13       14
    C14(11)   R14       14
    C14(11)   R15       1
    C14(11)   R18       5
    C14(11)   R20       3
    C15(12)   OBJ       -5
    C15(12)   R0        8
    C15(12)   R1        -6
    C15(12)   R3        2
    C15(12)   R4        11
    C15(12)   R6        7
    C15(12)   R7        11
    C15(12)   R8        8
    C15(12)   R10       12
    C15(12)   R12       4
    C15(12)   R16       13
    C15(12)   R17       14
    C15(12)   R19       13
    C16(15)   OBJ       7
    C16(15)   R0        -6
    C16(15)   R1        -6
    C16(15)   R3        -1
    C16(15)   R4        5
    C16(15)   R6        6
    C16(15)   R8        12
    C16(15)   R9        9
    C16(15)   R10       5
    C16(15)   R12       2
    C16(15)   R13       10
    C16(15)   R15       14
    C16(15)   R16       19
    C16(15)   R17       1
    C16(15)   R18       7
    C16(15)   R20       16
    C17(13)   OBJ       -6
    C17(13)   R0        -2
    C17(13)   R1        5
    C17(13)   R2        -1
    C17(13)   R3        16
    C17(13)   R4        18
    C17(13)   R5        3
    C17(13)   R8        8
    C17(13)   R10       6
    C17(13)   R12       16
    C17(13)   R13       15
    C17(13)   R15       10
    C17(13)   R17       17
    C17(13)   R20       7
    C18(15)   OBJ       -3
    C18(15)   R0        -2
    C18(15)   R1        -9
    C18(15)   R2        8
    C18(15)   R3        11
    C18(15)   R4        13
    C18(15)   R7        9
    C18(15)   R8        4
    C18(15)   R9        15
    C18(15)   R10       19
    C18(15)   R11       -1
    C18(15)   R12       11
    C18(15)   R13       19
    C18(15)   R17       9
    C18(15)   R19       8
    C18(15)   R20       10
    C19(14)   OBJ       -2
    C19(14)   R0        9
    C19(14)   R1        -2
    C19(14)   R2        3
    C19(14)   R3        11
    C19(14)   R5        8
    C19(14)   R6        12
    C19(14)   R8        3
    C19(14)   R9        3
    C19(14)   R10       3
    C19(14)   R11       2
    C19(14)   R16       18
    C19(14)   R17       16
    C19(14)   R18       2
    C19(14)   R20       18
    C20(1)    R2        1
    C21(1)    R3        1
    C22(1)    R4        1
    C23(1)    R5        1
    C24(1)    R6        1
    C25(1)    R7        1
    C26(1)    R8        1
    C27(1)    R9        1
    C28(1)    R10       1
    C29(1)    R11       1
    C30(1)    R12       1
    C31(1)    R13       1
    C32(1)    R14       1
    C33(1)    R15       1
    C34(1)    R16       1
    C35(1)    R17       1
    C36(1)    R18       1
    C37(1)    R19       1
    C38(1)    R20       1
    C39(1)    R21       1
RHS
    RHS1      R0        8.0189234712559553e+01
    RHS1      R1        -1.0767572317832287e+02
    RHS1      R2        83
    RHS1      R3        98
    RHS1      R4        67
    RHS1      R5        85
    RHS1      R6        95
    RHS1      R7        50
    RHS1      R8        74
    RHS1      R9        85
    RHS1      R10       64
    RHS1      R11       70
    RHS1      R12       71
    RHS1      R13       76
    RHS1      R14       85
    RHS1      R15       55
    RHS1      R16       78
    RHS1      R17       91
    RHS1      R18       98
    RHS1      R19       96
    RHS1      R20       98
    RHS1      R21       2
BOUNDS
 UP BND1      I0(10)    1
 UP BND1      I1(8)     1
 UP BND1      I2(4)     1
 UP BND1      I3(6)     1
 UP BND1      I4(4)     1
 UP BND1      I5(6)     1
 UP BND1      I6(5)     1
 UP BND1      I7(5)     1
ENDATA
